p cnf 50 60
1 -2 3 0
-26 -29 -44 0
-50 4 20 0
-36 15 22 0
-36 8 3 0
-23 14 -5 0
-11 -26 49 0
-19 -28 -35 0
-49 -14 -47 0
28 3 -11 0
-8 -44 34 0
41 -6 37 0
6 7 50 0
50 -22 12 0
17 27 47 0
6 -39 -30 0
-35 15 -43 0
46 -50 -5 0
-28 40 33 0
-21 -29 -25 0
18 -6 9 0
-46 41 -20 0
-16 -46 34 0
14 -7 -34 0
-24 44 -4 0
35 -29 30 0
-22 20 30 0
21 3 43 0
-44 -19 -32 0
42 34 24 0
28 36 11 0
42 6 -8 0
-44 10 18 0
-7 -19 -33 0
40 20 25 0
-3 28 41 0
-31 -21 39 0
-31 -3 -36 0
26 -18 -34 0
-30 -31 -11 0
9 -36 31 0
-10 -5 -38 0
-30 -23 35 0
8 -24 -50 0
-27 48 -21 0
-31 -41 30 0
-20 50 34 0
30 17 -50 0
21 -41 29 0
43 -13 -5 0
x -2 3 -4 7 8 9 10 -11 12 18 20 -23 24 -25 26 27 -28 29 30 32 -33 34 39 -40 -42 -44 -45 -47 48 0
x 2 4 -13 -16 25 26 27 34 -39 43 -44 -47 -49 50 0
x 1 2 4 -10 -11 15 16 -19 -22 -25 -26 28 35 38 -39 42 -44 45 46 47 49 -50 0
x -1 -2 -3 4 6 -11 14 16 -21 -22 -23 25 26 -29 30 -31 34 35 37 38 40 41 44 -45 -46 49 50 0
x -2 5 9 12 -13 -14 -17 -18 -20 -21 -23 -24 25 -27 -29 -31 -32 -36 -37 38 40 41 42 43 -46 50 0
x 3 5 6 7 10 11 -12 -14 -15 16 21 23 -28 29 30 -31 33 36 38 -45 -49 0
x 1 -2 8 -9 -10 -14 15 -16 -17 -18 19 -21 -22 23 24 -25 -31 -32 -33 34 -35 -36 -37 -40 42 -44 -48 49 0
x 1 -2 -3 4 5 -7 9 10 11 13 -14 -15 -17 23 -25 28 -30 31 32 33 -36 38 -39 -40 44 48 50 0
x -2 6 7 10 -11 -14 17 18 19 20 21 -31 -32 -34 -35 -38 39 -40 42 -43 -44 45 46 -49 -50 0
x -1 3 7 10 11 -12 -13 -14 -16 -21 22 -23 -24 26 -27 -28 29 34 35 37 38 -42 -49 0
